maximize

	+ 1 x_01

subject to

-171 x_01 - 171 x_02 - 171 x_03 - 171 x_04 - 171 x_05 - 171 x_06 - 86 x_07 - 86 x_08 - 86 x_09 - 86 x_10 - 86 x_11 - 86 x_12 - 86 x_13 - 86 x_14 >= -137

171 x_01 + 85 x_03 + 85 x_04 + 85 x_05 + 85 x_06 + 85 x_11 + 85 x_12 + 85 x_13 + 85 x_14 >= 34

171 x_02 + 85 x_03 + 85 x_04 + 85 x_05 + 85 x_06 + 85 x_07 + 85 x_08 + 85 x_09 + 85 x_10 >= 34

85 x_01 + 85 x_02 + 171 x_03 + 85 x_05 + 85 x_06 + 85 x_09 + 85 x_10 + 85 x_13 + 85 x_14 >= 34

85 x_01 + 85 x_02 + 171 x_04 + 85 x_05 + 85 x_06 + 85 x_07 + 85 x_08 + 85 x_11 + 85 x_12 >= 34

85 x_01 + 85 x_02 + 85 x_03 + 85 x_04 + 171 x_05 + 85 x_09 + 85 x_10 + 85 x_11 + 85 x_12 >= 34

85 x_01 + 85 x_02 + 85 x_03 + 85 x_04 + 171 x_06 + 85 x_07 + 85 x_08 + 85 x_13 + 85 x_14 >= 34

-85 x_01 - 85 x_03 - 85 x_05 + 86 x_07 - 85 x_09 - 85 x_11 - 85 x_13 >= -51

-85 x_01 - 85 x_03 - 85 x_05 + 86 x_08 - 85 x_10 - 85 x_12 - 85 x_14 >= -51

-85 x_01 - 85 x_04 - 85 x_06 - 85 x_07 + 86 x_09 - 85 x_12 - 85 x_14 >= -51

-85 x_01 - 85 x_04 - 85 x_06 - 85 x_08 + 86 x_10 - 85 x_11 - 85 x_13 >= -51

-85 x_02 - 85 x_03 - 85 x_06 - 85 x_07 - 85 x_10 + 86 x_11 - 85 x_14 >= -51

-85 x_02 - 85 x_03 - 85 x_06 - 85 x_08 - 85 x_09 + 86 x_12 - 85 x_13 >= -51

-85 x_02 - 85 x_04 - 85 x_05 - 85 x_07 - 85 x_10 - 85 x_12 + 86 x_13 >= -51

-85 x_02 - 85 x_04 - 85 x_05 - 85 x_08 - 85 x_09 - 85 x_11 + 86 x_14 >= -51


x_00 + x_01 + x_02 + x_03 + x_04 + x_05 + x_06 + x_07 + x_08 + x_09 + x_10 + x_11 + x_12 + x_13 + x_14 = 1

bounds

	-204 <= x_00 <= 204
	-204 <= x_01 <= 204
	-204 <= x_02 <= 204
	-204 <= x_03 <= 204
	-204 <= x_04 <= 204
	-204 <= x_05 <= 204
	-204 <= x_06 <= 204
	-204 <= x_07 <= 204
	-204 <= x_08 <= 204
	-204 <= x_09 <= 204
	-204 <= x_10 <= 204
	-204 <= x_11 <= 204
	-204 <= x_12 <= 204
	-204 <= x_13 <= 204
	-204 <= x_14 <= 204

general

	x_00 
	x_01 
	x_02 
	x_03 
	x_04 
	x_05 
	x_06 
	x_07 
	x_08 
	x_09 
	x_10 
	x_11 
	x_12 
	x_13 
	x_14
 
end
